; benchmark generated from python API
(set-info :status unknown)
(declare-fun cell_1_3 () Int)
(declare-fun cell_2_6 () Int)
(declare-fun cell_3_8 () Int)
(declare-fun cell_4_2 () Int)
(declare-fun cell_5_9 () Int)
(declare-fun cell_6_4 () Int)
(declare-fun cell_7_5 () Int)
(declare-fun cell_8_1 () Int)
(declare-fun cell_1_1 () Int)
(declare-fun cell_2_1 () Int)
(declare-fun cell_3_1 () Int)
(declare-fun cell_4_1 () Int)
(declare-fun cell_5_1 () Int)
(declare-fun cell_6_1 () Int)
(declare-fun cell_7_1 () Int)
(declare-fun cell_9_1 () Int)
(declare-fun cell_1_2 () Int)
(declare-fun cell_2_2 () Int)
(declare-fun cell_3_2 () Int)
(declare-fun cell_5_2 () Int)
(declare-fun cell_6_2 () Int)
(declare-fun cell_7_2 () Int)
(declare-fun cell_8_2 () Int)
(declare-fun cell_9_2 () Int)
(declare-fun cell_2_3 () Int)
(declare-fun cell_3_3 () Int)
(declare-fun cell_4_3 () Int)
(declare-fun cell_5_3 () Int)
(declare-fun cell_6_3 () Int)
(declare-fun cell_7_3 () Int)
(declare-fun cell_8_3 () Int)
(declare-fun cell_9_3 () Int)
(declare-fun cell_1_4 () Int)
(declare-fun cell_2_4 () Int)
(declare-fun cell_3_4 () Int)
(declare-fun cell_4_4 () Int)
(declare-fun cell_5_4 () Int)
(declare-fun cell_7_4 () Int)
(declare-fun cell_8_4 () Int)
(declare-fun cell_9_4 () Int)
(declare-fun cell_1_5 () Int)
(declare-fun cell_2_5 () Int)
(declare-fun cell_3_5 () Int)
(declare-fun cell_4_5 () Int)
(declare-fun cell_5_5 () Int)
(declare-fun cell_6_5 () Int)
(declare-fun cell_8_5 () Int)
(declare-fun cell_9_5 () Int)
(declare-fun cell_1_6 () Int)
(declare-fun cell_3_6 () Int)
(declare-fun cell_4_6 () Int)
(declare-fun cell_5_6 () Int)
(declare-fun cell_6_6 () Int)
(declare-fun cell_7_6 () Int)
(declare-fun cell_8_6 () Int)
(declare-fun cell_9_6 () Int)
(declare-fun cell_1_7 () Int)
(declare-fun cell_2_7 () Int)
(declare-fun cell_3_7 () Int)
(declare-fun cell_4_7 () Int)
(declare-fun cell_5_7 () Int)
(declare-fun cell_6_7 () Int)
(declare-fun cell_7_7 () Int)
(declare-fun cell_8_7 () Int)
(declare-fun cell_9_7 () Int)
(declare-fun cell_1_8 () Int)
(declare-fun cell_2_8 () Int)
(declare-fun cell_4_8 () Int)
(declare-fun cell_5_8 () Int)
(declare-fun cell_6_8 () Int)
(declare-fun cell_7_8 () Int)
(declare-fun cell_8_8 () Int)
(declare-fun cell_9_8 () Int)
(declare-fun cell_1_9 () Int)
(declare-fun cell_2_9 () Int)
(declare-fun cell_3_9 () Int)
(declare-fun cell_4_9 () Int)
(declare-fun cell_6_9 () Int)
(declare-fun cell_7_9 () Int)
(declare-fun cell_8_9 () Int)
(declare-fun cell_9_9 () Int)
(assert
 (= cell_1_3 1))
(assert
 (= cell_2_6 1))
(assert
 (= cell_3_8 1))
(assert
 (= cell_4_2 1))
(assert
 (= cell_5_9 1))
(assert
 (= cell_6_4 1))
(assert
 (= cell_7_5 1))
(assert
 (= cell_8_1 1))
(assert
 (let (($x3176 (= cell_1_1 9)))
 (let (($x3025 (= cell_1_1 8)))
 (let (($x8887 (= cell_1_1 7)))
 (let (($x1066 (= cell_1_1 6)))
 (let (($x1888 (= cell_1_1 5)))
 (let (($x4040 (= cell_1_1 4)))
 (let (($x6379 (= cell_1_1 3)))
 (let (($x770 (= cell_1_1 2)))
 (let (($x4573 (= cell_1_1 1)))
 (or $x4573 $x770 $x6379 $x4040 $x1888 $x1066 $x8887 $x3025 $x3176)))))))))))
(assert
 (let (($x6473 (= cell_2_1 9)))
 (let (($x1414 (= cell_2_1 8)))
 (let (($x3034 (= cell_2_1 7)))
 (let (($x8044 (= cell_2_1 6)))
 (let (($x4976 (= cell_2_1 5)))
 (let (($x978 (= cell_2_1 4)))
 (let (($x6888 (= cell_2_1 3)))
 (let (($x4277 (= cell_2_1 2)))
 (let (($x486 (= cell_2_1 1)))
 (or $x486 $x4277 $x6888 $x978 $x4976 $x8044 $x3034 $x1414 $x6473)))))))))))
(assert
 (let (($x4056 (= cell_3_1 9)))
 (let (($x3687 (= cell_3_1 8)))
 (let (($x6595 (= cell_3_1 7)))
 (let (($x4679 (= cell_3_1 6)))
 (let (($x1839 (= cell_3_1 5)))
 (let (($x3192 (= cell_3_1 4)))
 (let (($x7957 (= cell_3_1 3)))
 (let (($x966 (= cell_3_1 2)))
 (let (($x8235 (= cell_3_1 1)))
 (or $x8235 $x966 $x7957 $x3192 $x1839 $x4679 $x6595 $x3687 $x4056)))))))))))
(assert
 (let (($x1754 (= cell_4_1 9)))
 (let (($x2008 (= cell_4_1 8)))
 (let (($x10107 (= cell_4_1 7)))
 (let (($x8067 (= cell_4_1 6)))
 (let (($x2431 (= cell_4_1 5)))
 (let (($x9439 (= cell_4_1 4)))
 (let (($x2998 (= cell_4_1 3)))
 (let (($x9141 (= cell_4_1 2)))
 (let (($x5962 (= cell_4_1 1)))
 (or $x5962 $x9141 $x2998 $x9439 $x2431 $x8067 $x10107 $x2008 $x1754)))))))))))
(assert
 (let (($x778 (= cell_5_1 9)))
 (let (($x4775 (= cell_5_1 8)))
 (let (($x449 (= cell_5_1 7)))
 (let (($x3403 (= cell_5_1 6)))
 (let (($x8655 (= cell_5_1 5)))
 (let (($x3487 (= cell_5_1 4)))
 (let (($x9956 (= cell_5_1 3)))
 (let (($x9062 (= cell_5_1 2)))
 (let (($x5937 (= cell_5_1 1)))
 (or $x5937 $x9062 $x9956 $x3487 $x8655 $x3403 $x449 $x4775 $x778)))))))))))
(assert
 (let (($x847 (= cell_6_1 9)))
 (let (($x7530 (= cell_6_1 8)))
 (let (($x2644 (= cell_6_1 7)))
 (let (($x8821 (= cell_6_1 6)))
 (let (($x3431 (= cell_6_1 5)))
 (let (($x4457 (= cell_6_1 4)))
 (let (($x5787 (= cell_6_1 3)))
 (let (($x190 (= cell_6_1 2)))
 (let (($x1712 (= cell_6_1 1)))
 (or $x1712 $x190 $x5787 $x4457 $x3431 $x8821 $x2644 $x7530 $x847)))))))))))
(assert
 (let (($x924 (= cell_7_1 9)))
 (let (($x8874 (= cell_7_1 8)))
 (let (($x8364 (= cell_7_1 7)))
 (let (($x2261 (= cell_7_1 6)))
 (let (($x8342 (= cell_7_1 5)))
 (let (($x9086 (= cell_7_1 4)))
 (let (($x6485 (= cell_7_1 3)))
 (let (($x8002 (= cell_7_1 2)))
 (let (($x4595 (= cell_7_1 1)))
 (or $x4595 $x8002 $x6485 $x9086 $x8342 $x2261 $x8364 $x8874 $x924)))))))))))
(assert
 (let (($x2414 (= cell_8_1 1)))
 (or $x2414 (= cell_8_1 2) (= cell_8_1 3) (= cell_8_1 4) (= cell_8_1 5) (= cell_8_1 6) (= cell_8_1 7) (= cell_8_1 8) (= cell_8_1 9))))
(assert
 (let (($x3144 (= cell_9_1 1)))
 (or $x3144 (= cell_9_1 2) (= cell_9_1 3) (= cell_9_1 4) (= cell_9_1 5) (= cell_9_1 6) (= cell_9_1 7) (= cell_9_1 8) (= cell_9_1 9))))
(assert
 (let (($x9444 (= cell_1_2 9)))
 (let (($x702 (= cell_1_2 8)))
 (let (($x8515 (= cell_1_2 7)))
 (let (($x2205 (= cell_1_2 6)))
 (let (($x3143 (= cell_1_2 5)))
 (let (($x5101 (= cell_1_2 4)))
 (let (($x2593 (= cell_1_2 3)))
 (let (($x8207 (= cell_1_2 2)))
 (let (($x8777 (= cell_1_2 1)))
 (or $x8777 $x8207 $x2593 $x5101 $x3143 $x2205 $x8515 $x702 $x9444)))))))))))
(assert
 (let (($x4486 (= cell_2_2 9)))
 (let (($x4812 (= cell_2_2 8)))
 (let (($x10221 (= cell_2_2 7)))
 (let (($x2793 (= cell_2_2 6)))
 (let (($x2192 (= cell_2_2 5)))
 (let (($x4455 (= cell_2_2 4)))
 (let (($x4448 (= cell_2_2 3)))
 (let (($x6023 (= cell_2_2 2)))
 (let (($x3244 (= cell_2_2 1)))
 (or $x3244 $x6023 $x4448 $x4455 $x2192 $x2793 $x10221 $x4812 $x4486)))))))))))
(assert
 (let (($x8563 (= cell_3_2 9)))
 (let (($x4668 (= cell_3_2 8)))
 (let (($x6208 (= cell_3_2 7)))
 (let (($x4159 (= cell_3_2 6)))
 (let (($x2637 (= cell_3_2 5)))
 (let (($x9626 (= cell_3_2 4)))
 (let (($x7207 (= cell_3_2 3)))
 (let (($x2481 (= cell_3_2 2)))
 (let (($x3641 (= cell_3_2 1)))
 (or $x3641 $x2481 $x7207 $x9626 $x2637 $x4159 $x6208 $x4668 $x8563)))))))))))
(assert
 (let (($x1853 (= cell_4_2 1)))
 (or $x1853 (= cell_4_2 2) (= cell_4_2 3) (= cell_4_2 4) (= cell_4_2 5) (= cell_4_2 6) (= cell_4_2 7) (= cell_4_2 8) (= cell_4_2 9))))
(assert
 (let (($x9581 (= cell_5_2 9)))
 (let (($x8714 (= cell_5_2 8)))
 (let (($x7995 (= cell_5_2 7)))
 (let (($x3732 (= cell_5_2 6)))
 (let (($x9724 (= cell_5_2 5)))
 (let (($x1407 (= cell_5_2 4)))
 (let (($x9607 (= cell_5_2 3)))
 (let (($x8068 (= cell_5_2 2)))
 (let (($x1023 (= cell_5_2 1)))
 (or $x1023 $x8068 $x9607 $x1407 $x9724 $x3732 $x7995 $x8714 $x9581)))))))))))
(assert
 (let (($x7872 (= cell_6_2 9)))
 (let (($x971 (= cell_6_2 8)))
 (let (($x5071 (= cell_6_2 7)))
 (let (($x747 (= cell_6_2 6)))
 (let (($x7434 (= cell_6_2 5)))
 (let (($x3385 (= cell_6_2 4)))
 (let (($x7641 (= cell_6_2 3)))
 (let (($x3377 (= cell_6_2 2)))
 (let (($x6878 (= cell_6_2 1)))
 (or $x6878 $x3377 $x7641 $x3385 $x7434 $x747 $x5071 $x971 $x7872)))))))))))
(assert
 (let (($x6082 (= cell_7_2 9)))
 (let (($x3711 (= cell_7_2 8)))
 (let (($x2561 (= cell_7_2 7)))
 (let (($x9508 (= cell_7_2 6)))
 (let (($x7988 (= cell_7_2 5)))
 (let (($x1293 (= cell_7_2 4)))
 (let (($x2927 (= cell_7_2 3)))
 (let (($x3250 (= cell_7_2 2)))
 (let (($x4029 (= cell_7_2 1)))
 (or $x4029 $x3250 $x2927 $x1293 $x7988 $x9508 $x2561 $x3711 $x6082)))))))))))
(assert
 (let (($x7376 (= cell_8_2 1)))
 (or $x7376 (= cell_8_2 2) (= cell_8_2 3) (= cell_8_2 4) (= cell_8_2 5) (= cell_8_2 6) (= cell_8_2 7) (= cell_8_2 8) (= cell_8_2 9))))
(assert
 (let (($x8246 (= cell_9_2 1)))
 (or $x8246 (= cell_9_2 2) (= cell_9_2 3) (= cell_9_2 4) (= cell_9_2 5) (= cell_9_2 6) (= cell_9_2 7) (= cell_9_2 8) (= cell_9_2 9))))
(assert
 (let (($x1150 (= cell_1_3 1)))
 (or $x1150 (= cell_1_3 2) (= cell_1_3 3) (= cell_1_3 4) (= cell_1_3 5) (= cell_1_3 6) (= cell_1_3 7) (= cell_1_3 8) (= cell_1_3 9))))
(assert
 (let (($x5562 (= cell_2_3 9)))
 (let (($x6138 (= cell_2_3 8)))
 (let (($x2232 (= cell_2_3 7)))
 (let (($x5907 (= cell_2_3 6)))
 (let (($x6903 (= cell_2_3 5)))
 (let (($x2361 (= cell_2_3 4)))
 (let (($x6204 (= cell_2_3 3)))
 (let (($x771 (= cell_2_3 2)))
 (let (($x2975 (= cell_2_3 1)))
 (or $x2975 $x771 $x6204 $x2361 $x6903 $x5907 $x2232 $x6138 $x5562)))))))))))
(assert
 (let (($x1599 (= cell_3_3 9)))
 (let (($x10094 (= cell_3_3 8)))
 (let (($x5528 (= cell_3_3 7)))
 (let (($x5559 (= cell_3_3 6)))
 (let (($x3629 (= cell_3_3 5)))
 (let (($x9008 (= cell_3_3 4)))
 (let (($x5570 (= cell_3_3 3)))
 (let (($x3408 (= cell_3_3 2)))
 (let (($x6524 (= cell_3_3 1)))
 (or $x6524 $x3408 $x5570 $x9008 $x3629 $x5559 $x5528 $x10094 $x1599)))))))))))
(assert
 (let (($x3116 (= cell_4_3 1)))
 (or $x3116 (= cell_4_3 2) (= cell_4_3 3) (= cell_4_3 4) (= cell_4_3 5) (= cell_4_3 6) (= cell_4_3 7) (= cell_4_3 8) (= cell_4_3 9))))
(assert
 (let (($x3895 (= cell_5_3 9)))
 (let (($x6710 (= cell_5_3 8)))
 (let (($x8949 (= cell_5_3 7)))
 (let (($x7748 (= cell_5_3 6)))
 (let (($x4267 (= cell_5_3 5)))
 (let (($x7564 (= cell_5_3 4)))
 (let (($x3876 (= cell_5_3 3)))
 (let (($x909 (= cell_5_3 2)))
 (let (($x7542 (= cell_5_3 1)))
 (or $x7542 $x909 $x3876 $x7564 $x4267 $x7748 $x8949 $x6710 $x3895)))))))))))
(assert
 (let (($x8604 (= cell_6_3 9)))
 (let (($x2404 (= cell_6_3 8)))
 (let (($x9402 (= cell_6_3 7)))
 (let (($x5008 (= cell_6_3 6)))
 (let (($x4941 (= cell_6_3 5)))
 (let (($x6517 (= cell_6_3 4)))
 (let (($x1596 (= cell_6_3 3)))
 (let (($x1437 (= cell_6_3 2)))
 (let (($x1294 (= cell_6_3 1)))
 (or $x1294 $x1437 $x1596 $x6517 $x4941 $x5008 $x9402 $x2404 $x8604)))))))))))
(assert
 (let (($x2638 (= cell_7_3 9)))
 (let (($x2918 (= cell_7_3 8)))
 (let (($x4496 (= cell_7_3 7)))
 (let (($x2812 (= cell_7_3 6)))
 (let (($x3344 (= cell_7_3 5)))
 (let (($x1715 (= cell_7_3 4)))
 (let (($x2075 (= cell_7_3 3)))
 (let (($x8060 (= cell_7_3 2)))
 (let (($x9378 (= cell_7_3 1)))
 (or $x9378 $x8060 $x2075 $x1715 $x3344 $x2812 $x4496 $x2918 $x2638)))))))))))
(assert
 (let (($x556 (= cell_8_3 1)))
 (or $x556 (= cell_8_3 2) (= cell_8_3 3) (= cell_8_3 4) (= cell_8_3 5) (= cell_8_3 6) (= cell_8_3 7) (= cell_8_3 8) (= cell_8_3 9))))
(assert
 (let (($x2654 (= cell_9_3 1)))
 (or $x2654 (= cell_9_3 2) (= cell_9_3 3) (= cell_9_3 4) (= cell_9_3 5) (= cell_9_3 6) (= cell_9_3 7) (= cell_9_3 8) (= cell_9_3 9))))
(assert
 (let (($x5981 (= cell_1_4 9)))
 (let (($x4231 (= cell_1_4 8)))
 (let (($x5358 (= cell_1_4 7)))
 (let (($x5465 (= cell_1_4 6)))
 (let (($x7511 (= cell_1_4 5)))
 (let (($x3664 (= cell_1_4 4)))
 (let (($x1560 (= cell_1_4 3)))
 (let (($x2912 (= cell_1_4 2)))
 (let (($x5940 (= cell_1_4 1)))
 (or $x5940 $x2912 $x1560 $x3664 $x7511 $x5465 $x5358 $x4231 $x5981)))))))))))
(assert
 (let (($x6567 (= cell_2_4 9)))
 (let (($x3406 (= cell_2_4 8)))
 (let (($x7660 (= cell_2_4 7)))
 (let (($x9287 (= cell_2_4 6)))
 (let (($x2134 (= cell_2_4 5)))
 (let (($x1523 (= cell_2_4 4)))
 (let (($x8642 (= cell_2_4 3)))
 (let (($x4049 (= cell_2_4 2)))
 (let (($x1748 (= cell_2_4 1)))
 (or $x1748 $x4049 $x8642 $x1523 $x2134 $x9287 $x7660 $x3406 $x6567)))))))))))
(assert
 (let (($x8937 (= cell_3_4 9)))
 (let (($x9612 (= cell_3_4 8)))
 (let (($x1828 (= cell_3_4 7)))
 (let (($x8496 (= cell_3_4 6)))
 (let (($x9562 (= cell_3_4 5)))
 (let (($x8789 (= cell_3_4 4)))
 (let (($x8913 (= cell_3_4 3)))
 (let (($x10156 (= cell_3_4 2)))
 (let (($x4212 (= cell_3_4 1)))
 (or $x4212 $x10156 $x8913 $x8789 $x9562 $x8496 $x1828 $x9612 $x8937)))))))))))
(assert
 (let (($x672 (= cell_4_4 9)))
 (let (($x4634 (= cell_4_4 8)))
 (let (($x3593 (= cell_4_4 7)))
 (let (($x8893 (= cell_4_4 6)))
 (let (($x7704 (= cell_4_4 5)))
 (let (($x9492 (= cell_4_4 4)))
 (let (($x1804 (= cell_4_4 3)))
 (let (($x4354 (= cell_4_4 2)))
 (let (($x5515 (= cell_4_4 1)))
 (or $x5515 $x4354 $x1804 $x9492 $x7704 $x8893 $x3593 $x4634 $x672)))))))))))
(assert
 (let (($x5103 (= cell_5_4 9)))
 (let (($x2602 (= cell_5_4 8)))
 (let (($x8761 (= cell_5_4 7)))
 (let (($x7492 (= cell_5_4 6)))
 (let (($x6427 (= cell_5_4 5)))
 (let (($x7477 (= cell_5_4 4)))
 (let (($x6239 (= cell_5_4 3)))
 (let (($x2787 (= cell_5_4 2)))
 (let (($x2433 (= cell_5_4 1)))
 (or $x2433 $x2787 $x6239 $x7477 $x6427 $x7492 $x8761 $x2602 $x5103)))))))))))
(assert
 (let (($x1155 (= cell_6_4 1)))
 (or $x1155 (= cell_6_4 2) (= cell_6_4 3) (= cell_6_4 4) (= cell_6_4 5) (= cell_6_4 6) (= cell_6_4 7) (= cell_6_4 8) (= cell_6_4 9))))
(assert
 (let (($x467 (= cell_7_4 9)))
 (let (($x4215 (= cell_7_4 8)))
 (let (($x8444 (= cell_7_4 7)))
 (let (($x3722 (= cell_7_4 6)))
 (let (($x3630 (= cell_7_4 5)))
 (let (($x2625 (= cell_7_4 4)))
 (let (($x1334 (= cell_7_4 3)))
 (let (($x765 (= cell_7_4 2)))
 (let (($x1953 (= cell_7_4 1)))
 (or $x1953 $x765 $x1334 $x2625 $x3630 $x3722 $x8444 $x4215 $x467)))))))))))
(assert
 (let (($x7217 (= cell_8_4 1)))
 (or $x7217 (= cell_8_4 2) (= cell_8_4 3) (= cell_8_4 4) (= cell_8_4 5) (= cell_8_4 6) (= cell_8_4 7) (= cell_8_4 8) (= cell_8_4 9))))
(assert
 (let (($x8367 (= cell_9_4 1)))
 (or $x8367 (= cell_9_4 2) (= cell_9_4 3) (= cell_9_4 4) (= cell_9_4 5) (= cell_9_4 6) (= cell_9_4 7) (= cell_9_4 8) (= cell_9_4 9))))
(assert
 (let (($x7845 (= cell_1_5 9)))
 (let (($x8498 (= cell_1_5 8)))
 (let (($x3517 (= cell_1_5 7)))
 (let (($x9791 (= cell_1_5 6)))
 (let (($x5463 (= cell_1_5 5)))
 (let (($x8751 (= cell_1_5 4)))
 (let (($x6046 (= cell_1_5 3)))
 (let (($x4264 (= cell_1_5 2)))
 (let (($x8540 (= cell_1_5 1)))
 (or $x8540 $x4264 $x6046 $x8751 $x5463 $x9791 $x3517 $x8498 $x7845)))))))))))
(assert
 (let (($x9718 (= cell_2_5 9)))
 (let (($x9355 (= cell_2_5 8)))
 (let (($x5613 (= cell_2_5 7)))
 (let (($x6757 (= cell_2_5 6)))
 (let (($x4749 (= cell_2_5 5)))
 (let (($x6856 (= cell_2_5 4)))
 (let (($x9731 (= cell_2_5 3)))
 (let (($x8440 (= cell_2_5 2)))
 (let (($x9123 (= cell_2_5 1)))
 (or $x9123 $x8440 $x9731 $x6856 $x4749 $x6757 $x5613 $x9355 $x9718)))))))))))
(assert
 (let (($x3189 (= cell_3_5 9)))
 (let (($x9629 (= cell_3_5 8)))
 (let (($x1488 (= cell_3_5 7)))
 (let (($x4699 (= cell_3_5 6)))
 (let (($x417 (= cell_3_5 5)))
 (let (($x2208 (= cell_3_5 4)))
 (let (($x9190 (= cell_3_5 3)))
 (let (($x352 (= cell_3_5 2)))
 (let (($x3170 (= cell_3_5 1)))
 (or $x3170 $x352 $x9190 $x2208 $x417 $x4699 $x1488 $x9629 $x3189)))))))))))
(assert
 (let (($x1637 (= cell_4_5 9)))
 (let (($x5497 (= cell_4_5 8)))
 (let (($x4889 (= cell_4_5 7)))
 (let (($x4647 (= cell_4_5 6)))
 (let (($x298 (= cell_4_5 5)))
 (let (($x3627 (= cell_4_5 4)))
 (let (($x9993 (= cell_4_5 3)))
 (let (($x4431 (= cell_4_5 2)))
 (let (($x4399 (= cell_4_5 1)))
 (or $x4399 $x4431 $x9993 $x3627 $x298 $x4647 $x4889 $x5497 $x1637)))))))))))
(assert
 (let (($x958 (= cell_5_5 9)))
 (let (($x2569 (= cell_5_5 8)))
 (let (($x4438 (= cell_5_5 7)))
 (let (($x4558 (= cell_5_5 6)))
 (let (($x4987 (= cell_5_5 5)))
 (let (($x3020 (= cell_5_5 4)))
 (let (($x4412 (= cell_5_5 3)))
 (let (($x2210 (= cell_5_5 2)))
 (let (($x10281 (= cell_5_5 1)))
 (or $x10281 $x2210 $x4412 $x3020 $x4987 $x4558 $x4438 $x2569 $x958)))))))))))
(assert
 (let (($x4859 (= cell_6_5 9)))
 (let (($x1434 (= cell_6_5 8)))
 (let (($x7491 (= cell_6_5 7)))
 (let (($x2360 (= cell_6_5 6)))
 (let (($x2337 (= cell_6_5 5)))
 (let (($x1073 (= cell_6_5 4)))
 (let (($x6449 (= cell_6_5 3)))
 (let (($x3132 (= cell_6_5 2)))
 (let (($x8309 (= cell_6_5 1)))
 (or $x8309 $x3132 $x6449 $x1073 $x2337 $x2360 $x7491 $x1434 $x4859)))))))))))
(assert
 (let (($x7515 (= cell_7_5 1)))
 (or $x7515 (= cell_7_5 2) (= cell_7_5 3) (= cell_7_5 4) (= cell_7_5 5) (= cell_7_5 6) (= cell_7_5 7) (= cell_7_5 8) (= cell_7_5 9))))
(assert
 (let (($x4758 (= cell_8_5 1)))
 (or $x4758 (= cell_8_5 2) (= cell_8_5 3) (= cell_8_5 4) (= cell_8_5 5) (= cell_8_5 6) (= cell_8_5 7) (= cell_8_5 8) (= cell_8_5 9))))
(assert
 (let (($x4202 (= cell_9_5 1)))
 (or $x4202 (= cell_9_5 2) (= cell_9_5 3) (= cell_9_5 4) (= cell_9_5 5) (= cell_9_5 6) (= cell_9_5 7) (= cell_9_5 8) (= cell_9_5 9))))
(assert
 (let (($x5155 (= cell_1_6 9)))
 (let (($x313 (= cell_1_6 8)))
 (let (($x3805 (= cell_1_6 7)))
 (let (($x1912 (= cell_1_6 6)))
 (let (($x6039 (= cell_1_6 5)))
 (let (($x4107 (= cell_1_6 4)))
 (let (($x6372 (= cell_1_6 3)))
 (let (($x8648 (= cell_1_6 2)))
 (let (($x9118 (= cell_1_6 1)))
 (or $x9118 $x8648 $x6372 $x4107 $x6039 $x1912 $x3805 $x313 $x5155)))))))))))
(assert
 (let (($x9687 (= cell_2_6 1)))
 (or $x9687 (= cell_2_6 2) (= cell_2_6 3) (= cell_2_6 4) (= cell_2_6 5) (= cell_2_6 6) (= cell_2_6 7) (= cell_2_6 8) (= cell_2_6 9))))
(assert
 (let (($x4975 (= cell_3_6 9)))
 (let (($x10018 (= cell_3_6 8)))
 (let (($x1223 (= cell_3_6 7)))
 (let (($x4922 (= cell_3_6 6)))
 (let (($x4565 (= cell_3_6 5)))
 (let (($x2090 (= cell_3_6 4)))
 (let (($x9707 (= cell_3_6 3)))
 (let (($x3310 (= cell_3_6 2)))
 (let (($x1164 (= cell_3_6 1)))
 (or $x1164 $x3310 $x9707 $x2090 $x4565 $x4922 $x1223 $x10018 $x4975)))))))))))
(assert
 (let (($x8555 (= cell_4_6 9)))
 (let (($x5643 (= cell_4_6 8)))
 (let (($x526 (= cell_4_6 7)))
 (let (($x8820 (= cell_4_6 6)))
 (let (($x6833 (= cell_4_6 5)))
 (let (($x6658 (= cell_4_6 4)))
 (let (($x1752 (= cell_4_6 3)))
 (let (($x6787 (= cell_4_6 2)))
 (let (($x2442 (= cell_4_6 1)))
 (or $x2442 $x6787 $x1752 $x6658 $x6833 $x8820 $x526 $x5643 $x8555)))))))))))
(assert
 (let (($x3669 (= cell_5_6 9)))
 (let (($x8878 (= cell_5_6 8)))
 (let (($x3088 (= cell_5_6 7)))
 (let (($x7333 (= cell_5_6 6)))
 (let (($x6990 (= cell_5_6 5)))
 (let (($x7819 (= cell_5_6 4)))
 (let (($x7739 (= cell_5_6 3)))
 (let (($x4717 (= cell_5_6 2)))
 (let (($x5138 (= cell_5_6 1)))
 (or $x5138 $x4717 $x7739 $x7819 $x6990 $x7333 $x3088 $x8878 $x3669)))))))))))
(assert
 (let (($x9953 (= cell_6_6 1)))
 (or $x9953 (= cell_6_6 2) (= cell_6_6 3) (= cell_6_6 4) (= cell_6_6 5) (= cell_6_6 6) (= cell_6_6 7) (= cell_6_6 8) (= cell_6_6 9))))
(assert
 (let (($x5400 (= cell_7_6 1)))
 (or $x5400 (= cell_7_6 2) (= cell_7_6 3) (= cell_7_6 4) (= cell_7_6 5) (= cell_7_6 6) (= cell_7_6 7) (= cell_7_6 8) (= cell_7_6 9))))
(assert
 (let (($x7103 (= cell_8_6 1)))
 (or $x7103 (= cell_8_6 2) (= cell_8_6 3) (= cell_8_6 4) (= cell_8_6 5) (= cell_8_6 6) (= cell_8_6 7) (= cell_8_6 8) (= cell_8_6 9))))
(assert
 (let (($x891 (= cell_9_6 1)))
 (or $x891 (= cell_9_6 2) (= cell_9_6 3) (= cell_9_6 4) (= cell_9_6 5) (= cell_9_6 6) (= cell_9_6 7) (= cell_9_6 8) (= cell_9_6 9))))
(assert
 (let (($x3770 (= cell_1_7 9)))
 (let (($x10063 (= cell_1_7 8)))
 (let (($x134 (= cell_1_7 7)))
 (let (($x4300 (= cell_1_7 6)))
 (let (($x9134 (= cell_1_7 5)))
 (let (($x4284 (= cell_1_7 4)))
 (let (($x4147 (= cell_1_7 3)))
 (let (($x10086 (= cell_1_7 2)))
 (let (($x931 (= cell_1_7 1)))
 (or $x931 $x10086 $x4147 $x4284 $x9134 $x4300 $x134 $x10063 $x3770)))))))))))
(assert
 (let (($x6640 (= cell_2_7 9)))
 (let (($x8809 (= cell_2_7 8)))
 (let (($x7771 (= cell_2_7 7)))
 (let (($x8541 (= cell_2_7 6)))
 (let (($x6789 (= cell_2_7 5)))
 (let (($x617 (= cell_2_7 4)))
 (let (($x7116 (= cell_2_7 3)))
 (let (($x1244 (= cell_2_7 2)))
 (let (($x9716 (= cell_2_7 1)))
 (or $x9716 $x1244 $x7116 $x617 $x6789 $x8541 $x7771 $x8809 $x6640)))))))))))
(assert
 (let (($x9644 (= cell_3_7 9)))
 (let (($x2247 (= cell_3_7 8)))
 (let (($x5373 (= cell_3_7 7)))
 (let (($x4427 (= cell_3_7 6)))
 (let (($x6045 (= cell_3_7 5)))
 (let (($x8983 (= cell_3_7 4)))
 (let (($x9935 (= cell_3_7 3)))
 (let (($x7052 (= cell_3_7 2)))
 (let (($x9024 (= cell_3_7 1)))
 (or $x9024 $x7052 $x9935 $x8983 $x6045 $x4427 $x5373 $x2247 $x9644)))))))))))
(assert
 (let (($x9771 (= cell_4_7 9)))
 (let (($x7035 (= cell_4_7 8)))
 (let (($x9257 (= cell_4_7 7)))
 (let (($x3836 (= cell_4_7 6)))
 (let (($x5484 (= cell_4_7 5)))
 (let (($x4513 (= cell_4_7 4)))
 (let (($x7765 (= cell_4_7 3)))
 (let (($x9693 (= cell_4_7 2)))
 (let (($x7286 (= cell_4_7 1)))
 (or $x7286 $x9693 $x7765 $x4513 $x5484 $x3836 $x9257 $x7035 $x9771)))))))))))
(assert
 (let (($x727 (= cell_5_7 9)))
 (let (($x8514 (= cell_5_7 8)))
 (let (($x4424 (= cell_5_7 7)))
 (let (($x4179 (= cell_5_7 6)))
 (let (($x1744 (= cell_5_7 5)))
 (let (($x549 (= cell_5_7 4)))
 (let (($x100 (= cell_5_7 3)))
 (let (($x8785 (= cell_5_7 2)))
 (let (($x1201 (= cell_5_7 1)))
 (or $x1201 $x8785 $x100 $x549 $x1744 $x4179 $x4424 $x8514 $x727)))))))))))
(assert
 (let (($x8716 (= cell_6_7 1)))
 (or $x8716 (= cell_6_7 2) (= cell_6_7 3) (= cell_6_7 4) (= cell_6_7 5) (= cell_6_7 6) (= cell_6_7 7) (= cell_6_7 8) (= cell_6_7 9))))
(assert
 (let (($x4034 (= cell_7_7 1)))
 (or $x4034 (= cell_7_7 2) (= cell_7_7 3) (= cell_7_7 4) (= cell_7_7 5) (= cell_7_7 6) (= cell_7_7 7) (= cell_7_7 8) (= cell_7_7 9))))
(assert
 (let (($x8944 (= cell_8_7 1)))
 (or $x8944 (= cell_8_7 2) (= cell_8_7 3) (= cell_8_7 4) (= cell_8_7 5) (= cell_8_7 6) (= cell_8_7 7) (= cell_8_7 8) (= cell_8_7 9))))
(assert
 (let (($x5586 (= cell_9_7 1)))
 (or $x5586 (= cell_9_7 2) (= cell_9_7 3) (= cell_9_7 4) (= cell_9_7 5) (= cell_9_7 6) (= cell_9_7 7) (= cell_9_7 8) (= cell_9_7 9))))
(assert
 (let (($x8930 (= cell_1_8 9)))
 (let (($x5604 (= cell_1_8 8)))
 (let (($x9675 (= cell_1_8 7)))
 (let (($x4376 (= cell_1_8 6)))
 (let (($x7385 (= cell_1_8 5)))
 (let (($x1299 (= cell_1_8 4)))
 (let (($x4262 (= cell_1_8 3)))
 (let (($x726 (= cell_1_8 2)))
 (let (($x433 (= cell_1_8 1)))
 (or $x433 $x726 $x4262 $x1299 $x7385 $x4376 $x9675 $x5604 $x8930)))))))))))
(assert
 (let (($x4339 (= cell_2_8 9)))
 (let (($x3459 (= cell_2_8 8)))
 (let (($x6631 (= cell_2_8 7)))
 (let (($x258 (= cell_2_8 6)))
 (let (($x1508 (= cell_2_8 5)))
 (let (($x6343 (= cell_2_8 4)))
 (let (($x3136 (= cell_2_8 3)))
 (let (($x6546 (= cell_2_8 2)))
 (let (($x7222 (= cell_2_8 1)))
 (or $x7222 $x6546 $x3136 $x6343 $x1508 $x258 $x6631 $x3459 $x4339)))))))))))
(assert
 (let (($x3389 (= cell_3_8 1)))
 (or $x3389 (= cell_3_8 2) (= cell_3_8 3) (= cell_3_8 4) (= cell_3_8 5) (= cell_3_8 6) (= cell_3_8 7) (= cell_3_8 8) (= cell_3_8 9))))
(assert
 (let (($x3971 (= cell_4_8 9)))
 (let (($x2982 (= cell_4_8 8)))
 (let (($x7911 (= cell_4_8 7)))
 (let (($x1611 (= cell_4_8 6)))
 (let (($x3134 (= cell_4_8 5)))
 (let (($x1673 (= cell_4_8 4)))
 (let (($x1385 (= cell_4_8 3)))
 (let (($x7458 (= cell_4_8 2)))
 (let (($x6614 (= cell_4_8 1)))
 (or $x6614 $x7458 $x1385 $x1673 $x3134 $x1611 $x7911 $x2982 $x3971)))))))))))
(assert
 (let (($x1099 (= cell_5_8 9)))
 (let (($x7221 (= cell_5_8 8)))
 (let (($x2276 (= cell_5_8 7)))
 (let (($x8479 (= cell_5_8 6)))
 (let (($x131 (= cell_5_8 5)))
 (let (($x6980 (= cell_5_8 4)))
 (let (($x2618 (= cell_5_8 3)))
 (let (($x9474 (= cell_5_8 2)))
 (let (($x2357 (= cell_5_8 1)))
 (or $x2357 $x9474 $x2618 $x6980 $x131 $x8479 $x2276 $x7221 $x1099)))))))))))
(assert
 (let (($x7778 (= cell_6_8 1)))
 (or $x7778 (= cell_6_8 2) (= cell_6_8 3) (= cell_6_8 4) (= cell_6_8 5) (= cell_6_8 6) (= cell_6_8 7) (= cell_6_8 8) (= cell_6_8 9))))
(assert
 (let (($x255 (= cell_7_8 1)))
 (or $x255 (= cell_7_8 2) (= cell_7_8 3) (= cell_7_8 4) (= cell_7_8 5) (= cell_7_8 6) (= cell_7_8 7) (= cell_7_8 8) (= cell_7_8 9))))
(assert
 (let (($x1784 (= cell_8_8 1)))
 (or $x1784 (= cell_8_8 2) (= cell_8_8 3) (= cell_8_8 4) (= cell_8_8 5) (= cell_8_8 6) (= cell_8_8 7) (= cell_8_8 8) (= cell_8_8 9))))
(assert
 (let (($x2466 (= cell_9_8 1)))
 (or $x2466 (= cell_9_8 2) (= cell_9_8 3) (= cell_9_8 4) (= cell_9_8 5) (= cell_9_8 6) (= cell_9_8 7) (= cell_9_8 8) (= cell_9_8 9))))
(assert
 (let (($x1453 (= cell_1_9 9)))
 (let (($x7604 (= cell_1_9 8)))
 (let (($x7158 (= cell_1_9 7)))
 (let (($x3379 (= cell_1_9 6)))
 (let (($x4483 (= cell_1_9 5)))
 (let (($x4919 (= cell_1_9 4)))
 (let (($x1956 (= cell_1_9 3)))
 (let (($x6068 (= cell_1_9 2)))
 (let (($x7740 (= cell_1_9 1)))
 (or $x7740 $x6068 $x1956 $x4919 $x4483 $x3379 $x7158 $x7604 $x1453)))))))))))
(assert
 (let (($x5709 (= cell_2_9 9)))
 (let (($x7566 (= cell_2_9 8)))
 (let (($x3991 (= cell_2_9 7)))
 (let (($x3483 (= cell_2_9 6)))
 (let (($x3027 (= cell_2_9 5)))
 (let (($x9460 (= cell_2_9 4)))
 (let (($x6908 (= cell_2_9 3)))
 (let (($x6152 (= cell_2_9 2)))
 (let (($x1295 (= cell_2_9 1)))
 (or $x1295 $x6152 $x6908 $x9460 $x3027 $x3483 $x3991 $x7566 $x5709)))))))))))
(assert
 (let (($x7473 (= cell_3_9 9)))
 (let (($x9195 (= cell_3_9 8)))
 (let (($x3871 (= cell_3_9 7)))
 (let (($x4813 (= cell_3_9 6)))
 (let (($x8361 (= cell_3_9 5)))
 (let (($x2167 (= cell_3_9 4)))
 (let (($x7810 (= cell_3_9 3)))
 (let (($x7817 (= cell_3_9 2)))
 (let (($x7500 (= cell_3_9 1)))
 (or $x7500 $x7817 $x7810 $x2167 $x8361 $x4813 $x3871 $x9195 $x7473)))))))))))
(assert
 (let (($x3169 (= cell_4_9 9)))
 (let (($x7983 (= cell_4_9 8)))
 (let (($x48 (= cell_4_9 7)))
 (let (($x8531 (= cell_4_9 6)))
 (let (($x9715 (= cell_4_9 5)))
 (let (($x921 (= cell_4_9 4)))
 (let (($x10143 (= cell_4_9 3)))
 (let (($x2152 (= cell_4_9 2)))
 (let (($x2342 (= cell_4_9 1)))
 (or $x2342 $x2152 $x10143 $x921 $x9715 $x8531 $x48 $x7983 $x3169)))))))))))
(assert
 (let (($x4829 (= cell_5_9 1)))
 (or $x4829 (= cell_5_9 2) (= cell_5_9 3) (= cell_5_9 4) (= cell_5_9 5) (= cell_5_9 6) (= cell_5_9 7) (= cell_5_9 8) (= cell_5_9 9))))
(assert
 (let (($x7337 (= cell_6_9 1)))
 (or $x7337 (= cell_6_9 2) (= cell_6_9 3) (= cell_6_9 4) (= cell_6_9 5) (= cell_6_9 6) (= cell_6_9 7) (= cell_6_9 8) (= cell_6_9 9))))
(assert
 (let (($x8736 (= cell_7_9 1)))
 (or $x8736 (= cell_7_9 2) (= cell_7_9 3) (= cell_7_9 4) (= cell_7_9 5) (= cell_7_9 6) (= cell_7_9 7) (= cell_7_9 8) (= cell_7_9 9))))
(assert
 (let (($x6533 (= cell_8_9 1)))
 (or $x6533 (= cell_8_9 2) (= cell_8_9 3) (= cell_8_9 4) (= cell_8_9 5) (= cell_8_9 6) (= cell_8_9 7) (= cell_8_9 8) (= cell_8_9 9))))
(assert
 (let (($x5805 (= cell_9_9 1)))
 (or $x5805 (= cell_9_9 2) (= cell_9_9 3) (= cell_9_9 4) (= cell_9_9 5) (= cell_9_9 6) (= cell_9_9 7) (= cell_9_9 8) (= cell_9_9 9))))
(assert
 (and (distinct cell_1_1 cell_1_2 cell_1_3 cell_1_4 cell_1_5 cell_1_6 cell_1_7 cell_1_8 cell_1_9) true))
(assert
 (and (distinct cell_2_1 cell_2_2 cell_2_3 cell_2_4 cell_2_5 cell_2_6 cell_2_7 cell_2_8 cell_2_9) true))
(assert
 (and (distinct cell_3_1 cell_3_2 cell_3_3 cell_3_4 cell_3_5 cell_3_6 cell_3_7 cell_3_8 cell_3_9) true))
(assert
 (and (distinct cell_4_1 cell_4_2 cell_4_3 cell_4_4 cell_4_5 cell_4_6 cell_4_7 cell_4_8 cell_4_9) true))
(assert
 (and (distinct cell_5_1 cell_5_2 cell_5_3 cell_5_4 cell_5_5 cell_5_6 cell_5_7 cell_5_8 cell_5_9) true))
(assert
 (and (distinct cell_6_1 cell_6_2 cell_6_3 cell_6_4 cell_6_5 cell_6_6 cell_6_7 cell_6_8 cell_6_9) true))
(assert
 (and (distinct cell_7_1 cell_7_2 cell_7_3 cell_7_4 cell_7_5 cell_7_6 cell_7_7 cell_7_8 cell_7_9) true))
(assert
 (and (distinct cell_8_1 cell_8_2 cell_8_3 cell_8_4 cell_8_5 cell_8_6 cell_8_7 cell_8_8 cell_8_9) true))
(assert
 (and (distinct cell_9_1 cell_9_2 cell_9_3 cell_9_4 cell_9_5 cell_9_6 cell_9_7 cell_9_8 cell_9_9) true))
(assert
 (and (distinct cell_1_1 cell_2_1 cell_3_1 cell_4_1 cell_5_1 cell_6_1 cell_7_1 cell_8_1 cell_9_1) true))
(assert
 (and (distinct cell_1_2 cell_2_2 cell_3_2 cell_4_2 cell_5_2 cell_6_2 cell_7_2 cell_8_2 cell_9_2) true))
(assert
 (and (distinct cell_1_3 cell_2_3 cell_3_3 cell_4_3 cell_5_3 cell_6_3 cell_7_3 cell_8_3 cell_9_3) true))
(assert
 (and (distinct cell_1_4 cell_2_4 cell_3_4 cell_4_4 cell_5_4 cell_6_4 cell_7_4 cell_8_4 cell_9_4) true))
(assert
 (and (distinct cell_1_5 cell_2_5 cell_3_5 cell_4_5 cell_5_5 cell_6_5 cell_7_5 cell_8_5 cell_9_5) true))
(assert
 (and (distinct cell_1_6 cell_2_6 cell_3_6 cell_4_6 cell_5_6 cell_6_6 cell_7_6 cell_8_6 cell_9_6) true))
(assert
 (and (distinct cell_1_7 cell_2_7 cell_3_7 cell_4_7 cell_5_7 cell_6_7 cell_7_7 cell_8_7 cell_9_7) true))
(assert
 (and (distinct cell_1_8 cell_2_8 cell_3_8 cell_4_8 cell_5_8 cell_6_8 cell_7_8 cell_8_8 cell_9_8) true))
(assert
 (and (distinct cell_1_9 cell_2_9 cell_3_9 cell_4_9 cell_5_9 cell_6_9 cell_7_9 cell_8_9 cell_9_9) true))
(assert
 (and (distinct cell_1_1 cell_1_2 cell_1_3 cell_2_1 cell_2_2 cell_2_3 cell_3_1 cell_3_2 cell_3_3) true))
(assert
 (and (distinct cell_1_4 cell_1_5 cell_1_6 cell_2_4 cell_2_5 cell_2_6 cell_3_4 cell_3_5 cell_3_6) true))
(assert
 (and (distinct cell_1_7 cell_1_8 cell_1_9 cell_2_7 cell_2_8 cell_2_9 cell_3_7 cell_3_8 cell_3_9) true))
(assert
 (and (distinct cell_4_1 cell_4_2 cell_4_3 cell_5_1 cell_5_2 cell_5_3 cell_6_1 cell_6_2 cell_6_3) true))
(assert
 (and (distinct cell_4_4 cell_4_5 cell_4_6 cell_5_4 cell_5_5 cell_5_6 cell_6_4 cell_6_5 cell_6_6) true))
(assert
 (and (distinct cell_4_7 cell_4_8 cell_4_9 cell_5_7 cell_5_8 cell_5_9 cell_6_7 cell_6_8 cell_6_9) true))
(assert
 (and (distinct cell_7_1 cell_7_2 cell_7_3 cell_8_1 cell_8_2 cell_8_3 cell_9_1 cell_9_2 cell_9_3) true))
(assert
 (and (distinct cell_7_4 cell_7_5 cell_7_6 cell_8_4 cell_8_5 cell_8_6 cell_9_4 cell_9_5 cell_9_6) true))
(assert
 (and (distinct cell_7_7 cell_7_8 cell_7_9 cell_8_7 cell_8_8 cell_8_9 cell_9_7 cell_9_8 cell_9_9) true))
(assert
 (let (($x5610 (and (distinct cell_5_9 cell_6_8 cell_7_7 cell_8_6) true)))
 (let (($x4166 (and (distinct cell_2_9 cell_3_8 cell_4_7 cell_5_6 cell_6_5 cell_7_4 cell_8_3 cell_9_2) true)))
 (let (($x9275 (and (distinct cell_1_8 cell_2_7 cell_3_6 cell_4_5 cell_5_4 cell_6_3 cell_7_2 cell_8_1) true)))
 (let (($x2062 (and (distinct cell_1_5 cell_2_4 cell_3_3 cell_4_2) true)))
 (let (($x9591 (and (distinct cell_5_1 cell_6_2 cell_7_3 cell_8_4) true)))
 (let (($x3179 (and (distinct cell_2_1 cell_3_2 cell_4_3 cell_5_4 cell_6_5 cell_7_6 cell_8_7 cell_9_8) true)))
 (let (($x5629 (and (distinct cell_1_2 cell_2_3 cell_3_4 cell_4_5 cell_5_6 cell_6_7 cell_7_8 cell_8_9) true)))
 (let (($x413 (and (distinct cell_1_5 cell_2_6 cell_3_7 cell_4_8) true)))
 (and $x413 $x5629 $x3179 $x9591 $x2062 $x9275 $x4166 $x5610))))))))))
(assert
 (= cell_9_7 1))
(check-sat)
